p tw 194 379
1 81
1 82
1 135
1 136
1 173
1 174
2 59
2 60
2 181
2 182
3 58
3 59
3 147
3 148
4 56
4 57
4 146
4 147
5 75
5 76
5 124
5 125
6 104
6 105
6 167
6 168
7 92
7 93
7 191
7 192
8 85
8 113
8 114
8 138
8 139
9 85
9 86
9 116
9 117
9 187
10 41
10 88
10 89
10 109
10 121
10 122
11 87
11 88
11 178
11 179
12 71
12 72
12 115
12 116
12 161
12 162
13 69
13 70
13 158
13 159
13 194
14 55
14 56
14 128
14 129
14 145
14 146
14 193
14 194
15 98
15 99
15 150
15 151
15 183
15 184
16 20
16 40
16 83
16 84
16 137
16 174
16 175
16 186
17 95
17 96
17 148
17 149
17 180
17 181
18 93
18 94
18 129
18 130
18 144
18 145
19 105
19 106
19 130
19 131
20 37
20 84
20 137
20 175
21 90
21 91
21 123
21 124
22 64
22 65
22 154
22 155
23 65
23 66
23 110
23 111
24 68
24 69
24 156
24 157
25 62
25 63
25 133
25 134
25 151
25 152
26 64
26 110
26 154
27 86
27 87
27 118
27 119
27 141
27 142
28 51
28 52
28 114
28 115
28 139
28 140
29 80
29 81
29 134
29 135
29 171
29 172
30 66
30 67
30 155
30 156
31 77
31 78
31 131
31 132
31 168
31 169
32 53
32 54
32 119
32 120
32 142
32 143
33 54
33 55
33 125
33 126
34 67
34 68
34 189
34 190
35 96
35 97
35 108
35 109
35 132
35 133
35 149
35 150
36 71
36 161
36 176
37 38
37 107
37 175
38 107
38 136
38 137
38 172
38 173
39 70
39 159
39 160
40 63
40 152
40 153
40 186
41 100
41 101
41 109
41 111
41 112
42 74
42 75
42 122
42 123
43 91
43 92
43 126
43 127
43 143
43 144
44 79
44 80
44 170
44 171
45 102
45 120
45 121
45 163
45 164
46 73
46 74
46 117
46 118
46 162
46 163
46 187
46 188
47 50
47 51
47 138
47 176
47 177
48 102
48 103
48 108
48 127
48 128
48 165
48 166
49 61
49 62
49 184
49 185
50 51
50 113
51 52
52 53
53 54
54 55
55 56
56 57
57 58
58 59
59 60
60 61
61 62
62 63
64 65
65 66
66 67
67 68
68 69
69 70
71 72
72 73
73 74
74 75
75 76
76 77
77 78
78 79
79 80
80 81
81 82
82 83
83 84
85 86
86 87
87 88
88 89
89 90
90 91
91 92
92 93
93 94
94 95
95 96
96 97
97 98
98 99
99 153
100 101
100 112
101 160
102 103
103 104
104 105
105 106
106 107
108 109
110 111
111 112
113 114
114 115
115 116
116 117
117 118
118 119
119 120
120 121
121 122
122 123
123 124
124 125
125 126
126 127
127 128
128 129
129 130
130 131
131 132
132 133
133 134
134 135
135 136
136 137
138 139
139 140
140 141
141 142
142 143
143 144
144 145
145 146
146 147
147 148
148 149
149 150
150 151
151 152
152 153
154 155
155 156
156 157
157 158
158 159
159 160
161 162
162 163
163 164
164 165
165 166
166 167
167 168
168 169
169 170
170 171
171 172
172 173
173 174
174 175
176 177
177 178
178 179
179 180
180 181
181 182
182 183
183 184
184 185
185 186
187 188
188 189
189 190
190 191
191 192
192 193
193 194
